####################################################################### 
# 
# This file contains crystal structure data downloaded from the 
# Cambridge Structural Database (CSD) hosted by the Cambridge 
# Crystallographic Data Centre (CCDC).
# 
# Full information about CCDC data access policies and citation 
# guidelines are available at http://www.ccdc.cam.ac.uk/access/V1 
# 
# Audit and citation data items may have been added by the CCDC. 
# Please retain this information to preserve the provenance of 
# this file and to allow appropriate attribution of the data. 
# 
#######################################################################

data_ZIF-71_RHO
_audit_block_doi                 10.5517/ccqj9r8
_database_code_depnum_ccdc_archive 'CCDC 671080'
loop_
_citation_id
_citation_doi
_citation_year
1 10.1126/science.1152516 2008
_audit_update_record             
;
2007-12-14 deposited with the CCDC.	2022-01-06 downloaded from the CCDC.
;

_audit_creation_method           SHELXL-97
_chemical_name_systematic        
;
?
;
_chemical_name_common            ZIF71-RHO
_chemical_melting_point          ?
_chemical_formula_moiety         'C7.30 H2 Cl4 N4 O0.03 Zn'
_chemical_formula_sum            'C7.30 H2 Cl4 N4 O0.03 Zn'
_chemical_formula_weight         353.42

loop_
_atom_type_symbol
_atom_type_description
_atom_type_scat_dispersion_real
_atom_type_scat_dispersion_imag
_atom_type_scat_source
C C 0.0181 0.0091 'International Tables Vol C Tables 4.2.6.8 and 6.1.1.4'
H H 0.0000 0.0000 'International Tables Vol C Tables 4.2.6.8 and 6.1.1.4'
N N 0.0311 0.0180 'International Tables Vol C Tables 4.2.6.8 and 6.1.1.4'
Cl Cl 0.3639 0.7018 'International Tables Vol C Tables 4.2.6.8 and 6.1.1.4'
Zn Zn -1.5491 0.6778 'International Tables Vol C Tables 4.2.6.8 and 6.1.1.4'
O O 0.0492 0.0322 'International Tables Vol C Tables 4.2.6.8 and 6.1.1.4'

_symmetry_cell_setting           Cubic
_symmetry_space_group_name_H-M   Pm-3m

loop_
_symmetry_equiv_pos_as_xyz
'x, y, z'
'-x, -y, z'
'-x, y, -z'
'x, -y, -z'
'z, x, y'
'z, -x, -y'
'-z, -x, y'
'-z, x, -y'
'y, z, x'
'-y, z, -x'
'y, -z, -x'
'-y, -z, x'
'y, x, -z'
'-y, -x, -z'
'y, -x, z'
'-y, x, z'
'x, z, -y'
'-x, z, y'
'-x, -z, -y'
'x, -z, y'
'z, y, -x'
'z, -y, x'
'-z, y, x'
'-z, -y, -x'
'-x, -y, -z'
'x, y, -z'
'x, -y, z'
'-x, y, z'
'-z, -x, -y'
'-z, x, y'
'z, x, -y'
'z, -x, y'
'-y, -z, -x'
'y, -z, x'
'-y, z, x'
'y, z, -x'
'-y, -x, z'
'y, x, z'
'-y, x, -z'
'y, -x, -z'
'-x, -z, y'
'x, -z, -y'
'x, z, y'
'-x, z, -y'
'-z, -y, x'
'-z, y, -x'
'z, -y, -x'
'z, y, x'

_cell_length_a                   28.5539(2)
_cell_length_b                   28.5539(2)
_cell_length_c                   28.5539(2)
_cell_angle_alpha                90.00
_cell_angle_beta                 90.00
_cell_angle_gamma                90.00
_cell_volume                     23280.7(3)
_cell_formula_units_Z            48
_cell_measurement_temperature    153(2)
_cell_measurement_reflns_used    9416
_cell_measurement_theta_min      2.19
_cell_measurement_theta_max      35.21

_exptl_crystal_description       cubic
_exptl_crystal_colour            colorless
_exptl_crystal_size_max          0.22
_exptl_crystal_size_mid          0.20
_exptl_crystal_size_min          0.19
_exptl_crystal_density_meas      ?
_exptl_crystal_density_diffrn    1.210
_exptl_crystal_density_method    'not measured'
_exptl_crystal_F_000             8259
_exptl_absorpt_coefficient_mu    6.723
_exptl_absorpt_correction_type   none
_exptl_absorpt_correction_T_min  ?
_exptl_absorpt_correction_T_max  ?
_exptl_absorpt_process_details   ?

_exptl_special_details           
;
Due to the highly porous nature of this compound
solvent included in the pores was highly disordered
causing a high background which washed out high angle
data. Therefore diffraction was limited to atheta max 36.83.
;

_diffrn_ambient_temperature      153(2)
_diffrn_radiation_wavelength     1.54178
_diffrn_radiation_type           CuK\a
_diffrn_radiation_source         'fine-focus sealed tube'
_diffrn_radiation_monochromator  graphite
_diffrn_measurement_device_type  'CCD area detector'
_diffrn_measurement_method       'phi and omega scans'
_diffrn_detector_area_resol_mean ?
_diffrn_standards_number         ?
_diffrn_standards_interval_count ?
_diffrn_standards_interval_time  ?
_diffrn_standards_decay_%        ?
_diffrn_reflns_number            57835
_diffrn_reflns_av_R_equivalents  0.2037
_diffrn_reflns_av_sigmaI/netI    0.0512
_diffrn_reflns_limit_h_min       -22
_diffrn_reflns_limit_h_max       22
_diffrn_reflns_limit_k_min       -22
_diffrn_reflns_limit_k_max       22
_diffrn_reflns_limit_l_min       -22
_diffrn_reflns_limit_l_max       22
_diffrn_reflns_theta_min         1.55
_diffrn_reflns_theta_max         36.83
_reflns_number_total             1209
_reflns_number_gt                736
_reflns_threshold_expression     >2sigma(I)

_computing_data_collection       'Bruker SMART'
_computing_cell_refinement       'Bruker SMART'
_computing_data_reduction        'Bruker SAINT'
_computing_structure_solution    'SHELXS-97 (Sheldrick, 1990)'
_computing_structure_refinement  'SHELXL-97 (Sheldrick, 1997)'
_computing_molecular_graphics    'Bruker SHELXTL'
_computing_publication_material  'Bruker SHELXTL'

_refine_special_details          
;
Refinement of F^2^ against ALL reflections. The weighted R-factor wR and
goodness of fit S are based on F^2^, conventional R-factors R are based
on F, with F set to zero for negative F^2^. The threshold expression of
F^2^ > 2sigma(F^2^) is used only for calculating R-factors(gt) etc. and is
not relevant to the choice of reflections for refinement. R-factors based
on F^2^ are statistically about twice as large as those based on F, and R-
factors based on ALL data will be even larger.

The Highest Ueqs are calculated for
the partial occupancy carbon atoms
and these values have a high esd.
Since each positional and displacement
parameter for H is dependent on C,
The attempts made to model the guests
(solvent molecules) did not lead to
identification of guest entities in
all structures due to the limited
periodicity of the solvent molecules
in the crystals. Since the solvent
is not bonded to the framework this
is can be expected for the MOF
structures. Many atomic co-ordinates
that have been attributed to solvent
molecules lie on a special position.
However very high displacement parameters ,
high esds and partial occupancy due
to the disorder
make it impossible to determine
accurate location/position for
these solvent molecules.

;

_refine_ls_structure_factor_coef Fsqd
_refine_ls_matrix_type           full
_refine_ls_weighting_scheme      calc
_refine_ls_weighting_details     
'calc w=1/[\s^2^(Fo^2^)+(0.1613P)^2^+0.0000P] where P=(Fo^2^+2Fc^2^)/3'
_atom_sites_solution_primary     direct
_atom_sites_solution_secondary   difmap
_atom_sites_solution_hydrogens   geom
_refine_ls_hydrogen_treatment    mixed
_refine_ls_extinction_method     SHELXL
_refine_ls_extinction_coef       0.000052(16)
_refine_ls_extinction_expression Fc^*^=kFc[1+0.001xFc^2^\l^3^/sin(2\q)]^-1/4^
_refine_ls_number_reflns         1209
_refine_ls_number_parameters     172
_refine_ls_number_restraints     0
_refine_ls_R_factor_all          0.0967
_refine_ls_R_factor_gt           0.0651
_refine_ls_wR_factor_ref         0.2370
_refine_ls_wR_factor_gt          0.2183
_refine_ls_goodness_of_fit_ref   1.073
_refine_ls_restrained_S_all      1.073
_refine_ls_shift/su_max          0.000
_refine_ls_shift/su_mean         0.000

loop_
_atom_site_label
_atom_site_type_symbol
_atom_site_fract_x
_atom_site_fract_y
_atom_site_fract_z
_atom_site_U_iso_or_equiv
_atom_site_adp_type
_atom_site_occupancy
_atom_site_symmetry_multiplicity
_atom_site_calc_flag
_atom_site_refinement_flags
_atom_site_disorder_assembly
_atom_site_disorder_group
Zn1 Zn 0.39539(9) 0.10407(9) 0.25185(8) 0.1545(17) Uani 1 1 d . . .
C1A C 0.3924(9) 0.0000 0.2563(8) 0.130(10) Uiso 1 2 d S . .
H1A H 0.4210 0.0000 0.2733 0.156 Uiso 1 2 calc SR . .
N2A N 0.3714(5) 0.0400(5) 0.2439(4) 0.136(5) Uani 1 1 d . . .
C3A C 0.3333(7) 0.0233(5) 0.2209(6) 0.141(8) Uani 1 1 d . . .
Cl4A Cl 0.29524(18) 0.06132(19) 0.19575(18) 0.200(3) Uani 1 1 d . . .
C1B C 0.5000 0.1099(13) 0.2474(18) 0.195(19) Uani 1 2 d S . .
H1B H 0.5000 0.1219 0.2163 0.234 Uiso 1 2 calc SR . .
N2B N 0.4619(7) 0.1001(6) 0.2730(7) 0.172(7) Uani 1 1 d . A .
C3B C 0.4765(5) 0.0838(7) 0.3162(6) 0.166(8) Uani 1 1 d . . .
Cl4B Cl 0.4398(3) 0.0884(6) 0.3611(3) 0.160(7) Uiso 0.490(19) 1 d P A 1
Cl5B Cl 0.4396(3) 0.0515(6) 0.3627(3) 0.152(6) Uiso 0.510(19) 1 d P A 2
C1C C 0.3165(7) 0.1102(12) 0.3165(7) 0.139(11) Uani 1 2 d S . .
H1C H 0.3058 0.0805 0.3058 0.167 Uiso 1 2 calc SR . .
N2C N 0.3528(6) 0.1335(6) 0.2971(7) 0.146(6) Uani 1 1 d . . .
C3C C 0.3557(5) 0.1723(7) 0.3218(6) 0.137(7) Uani 1 1 d . . .
Cl4C Cl 0.39725(19) 0.21499(19) 0.31110(18) 0.215(3) Uani 1 1 d . . .
C1D C 0.3941(8) 0.1780(7) 0.1780(7) 0.137(11) Uiso 1 2 d S . .
H1D H 0.3834 0.2003 0.2003 0.164 Uiso 1 2 calc SR . .
N2D N 0.4015(4) 0.1351(6) 0.1904(5) 0.142(5) Uani 1 1 d . . .
C3D C 0.4171(5) 0.1170(6) 0.1486(7) 0.142(8) Uani 1 1 d . . .
Cl4D Cl 0.43312(18) 0.0595(2) 0.14446(17) 0.201(2) Uani 1 1 d . . .
C1Z C 0.2350(19) 0.2350(19) 0.2350(19) 0.25(3) Uani 1 6 d S . .
C2Z C 0.2738(17) 0.2738(17) 0.2738(17) 0.28(3) Uani 1 6 d S . .
O1X O 0.0000 0.5000 0.5000 0.32(7) Uani 0.50 16 d SP . .
C3Z C 0.194(3) 0.194(3) 0.260(4) 0.43(8) Uani 0.50 2 d SP . .
C4Z C 0.217(5) 0.292(3) 0.217(5) 0.44(9) Uani 0.50 2 d SP . .
C1V C 0.0000 0.0000 0.5000 0.27(5) Uani 1 16 d S . .
C2V C 0.0000 0.0000 0.443(10) 0.30(14) Uani 0.25 8 d SP . .
C1Y C 0.327(2) 0.0590(14) 0.0590(14) 0.34(4) Uani 0.50 2 d SP . .
C1P C 0.273(4) 0.273(4) 0.5000 0.53(12) Uani 0.50 4 d SP . .

loop_
_atom_site_aniso_label
_atom_site_aniso_U_11
_atom_site_aniso_U_22
_atom_site_aniso_U_33
_atom_site_aniso_U_23
_atom_site_aniso_U_13
_atom_site_aniso_U_12
Zn1 0.145(3) 0.154(3) 0.164(3) -0.0150(19) 0.0035(19) 0.0041(17)
N2A 0.129(13) 0.144(16) 0.133(12) -0.022(9) -0.005(9) 0.014(11)
C3A 0.120(13) 0.17(2) 0.134(13) 0.010(11) -0.039(10) 0.019(14)
Cl4A 0.184(5) 0.205(5) 0.211(5) 0.006(4) -0.048(4) 0.014(4)
C1B 0.11(4) 0.19(3) 0.29(7) -0.04(4) 0.000 0.000
N2B 0.20(3) 0.168(14) 0.15(2) -0.029(13) -0.038(19) 0.006(15)
C3B 0.086(18) 0.28(2) 0.135(15) -0.052(15) 0.057(12) -0.022(11)
C1C 0.16(2) 0.09(3) 0.16(2) 0.003(14) -0.07(3) 0.003(14)
N2C 0.162(17) 0.099(17) 0.177(18) -0.015(11) -0.029(16) -0.031(14)
C3C 0.127(14) 0.126(15) 0.157(17) 0.021(12) 0.008(14) -0.036(14)
Cl4C 0.221(6) 0.196(5) 0.227(5) -0.040(4) 0.047(4) -0.065(5)
N2D 0.138(12) 0.154(15) 0.132(13) 0.011(14) 0.005(9) 0.001(10)
C3D 0.143(13) 0.16(2) 0.125(16) -0.016(17) 0.010(11) 0.005(11)
Cl4D 0.251(6) 0.162(5) 0.188(5) -0.022(4) 0.024(4) 0.033(4)
C1Z 0.25(3) 0.25(3) 0.25(3) 0.00(4) 0.00(4) 0.00(4)
C2Z 0.28(3) 0.28(3) 0.28(3) 0.00(4) 0.00(4) 0.00(4)
O1X 0.5(2) 0.24(8) 0.24(8) 0.000 0.000 0.000
C3Z 0.51(11) 0.51(11) 0.27(12) 0.00(6) 0.00(6) -0.26(12)
C4Z 0.57(15) 0.18(10) 0.57(15) 0.01(9) 0.15(19) 0.01(9)
C1V 0.32(8) 0.32(8) 0.17(9) 0.000 0.000 0.000
C2V 0.4(2) 0.4(2) 0.2(2) 0.000 0.000 0.000
C1Y 0.33(8) 0.34(6) 0.34(6) -0.16(7) -0.05(4) -0.05(4)
C1P 0.78(19) 0.78(19) 0.02(4) 0.000 0.000 0.6(2)

_geom_special_details            
;
All esds (except the esd in the dihedral angle between two l.s. planes)
are estimated using the full covariance matrix. The cell esds are taken
into account individually in the estimation of esds in distances, angles
and torsion angles; correlations between esds in cell parameters are only
used when they are defined by crystal symmetry. An approximate (isotropic)
treatment of cell esds is used for estimating esds involving l.s. planes.
;

loop_
_geom_bond_atom_site_label_1
_geom_bond_atom_site_label_2
_geom_bond_distance
_geom_bond_site_symmetry_2
_geom_bond_publ_flag
Zn1 N2C 1.96(2) . ?
Zn1 N2A 1.967(15) . ?
Zn1 N2D 1.974(15) . ?
Zn1 N2B 2.00(2) . ?
C1A N2A 1.337(14) 27 ?
C1A N2A 1.337(14) . ?
C1A H1A 0.9500 . ?
N2A C3A 1.358(16) . ?
C3A C3A 1.33(3) 27 ?
C3A Cl4A 1.696(15) . ?
C1B N2B 1.34(3) . ?
C1B N2B 1.34(3) 28_655 ?
C1B H1B 0.9500 . ?
N2B C3B 1.38(2) . ?
C3B C3B 1.34(3) 28_655 ?
C3B Cl4B 1.662(15) . ?
C3B Cl5B 1.93(2) . ?
C1C N2C 1.350(14) . ?
C1C N2C 1.350(14) 48 ?
C1C H1C 0.9500 . ?
N2C C3C 1.32(2) . ?
C3C C3C 1.37(3) 48 ?
C3C Cl4C 1.728(17) . ?
C1D N2D 1.292(14) 43 ?
C1D N2D 1.292(14) . ?
C1D H1D 0.9500 . ?
N2D C3D 1.376(16) . ?
C3D C3D 1.28(3) 43 ?
C3D Cl4D 1.707(17) . ?
C1Z C4Z 1.80(12) . ?
C1Z C4Z 1.80(12) 5 ?
C1Z C4Z 1.80(12) 9 ?
C1Z C3Z 1.81(11) 9 ?
C1Z C3Z 1.81(11) 5 ?
C1Z C3Z 1.81(11) . ?
C1Z C2Z 1.92(11) . ?
C3Z C4Z 1.31(14) 5 ?
C4Z C3Z 1.31(14) 9 ?
C1V C2V 1.6(3) . ?
C1V C2V 1.6(3) 25_556 ?

loop_
_geom_angle_atom_site_label_1
_geom_angle_atom_site_label_2
_geom_angle_atom_site_label_3
_geom_angle
_geom_angle_site_symmetry_1
_geom_angle_site_symmetry_3
_geom_angle_publ_flag
N2C Zn1 N2A 104.9(5) . . ?
N2C Zn1 N2D 116.6(6) . . ?
N2A Zn1 N2D 110.2(6) . . ?
N2C Zn1 N2B 114.6(7) . . ?
N2A Zn1 N2B 108.2(7) . . ?
N2D Zn1 N2B 102.2(6) . . ?
N2A C1A N2A 117(2) 27 . ?
N2A C1A H1A 121.4 27 . ?
N2A C1A H1A 121.4 . . ?
C1A N2A C3A 100.8(19) . . ?
C1A N2A Zn1 127.4(13) . . ?
C3A N2A Zn1 131.4(12) . . ?
C3A C3A N2A 110.6(10) 27 . ?
C3A C3A Cl4A 129.8(7) 27 . ?
N2A C3A Cl4A 119.5(14) . . ?
N2B C1B N2B 108(5) . 28_655 ?
N2B C1B H1B 125.8 . . ?
N2B C1B H1B 125.8 28_655 . ?
C1B N2B C3B 108(3) . . ?
C1B N2B Zn1 127(3) . . ?
C3B N2B Zn1 125.2(14) . . ?
C3B C3B N2B 107.6(11) 28_655 . ?
C3B C3B Cl4B 129.2(7) 28_655 . ?
N2B C3B Cl4B 118.1(16) . . ?
C3B C3B Cl5B 123.1(6) 28_655 . ?
N2B C3B Cl5B 127.5(14) . . ?
Cl4B C3B Cl5B 33.0(5) . . ?
N2C C1C N2C 113(4) . 48 ?
N2C C1C H1C 123.6 . . ?
N2C C1C H1C 123.6 48 . ?
C3C N2C C1C 104(3) . . ?
C3C N2C Zn1 132.3(15) . . ?
C1C N2C Zn1 122.3(19) . . ?
N2C C3C C3C 109.5(13) . 48 ?
N2C C3C Cl4C 122.8(17) . . ?
C3C C3C Cl4C 127.7(7) 48 . ?
N2D C1D N2D 119(3) 43 . ?
N2D C1D H1D 120.3 43 . ?
N2D C1D H1D 120.3 . . ?
C1D N2D C3D 100(2) . . ?
C1D N2D Zn1 130.9(15) . . ?
C3D N2D Zn1 129.2(13) . . ?
C3D C3D N2D 110.4(10) 43 . ?
C3D C3D Cl4D 129.1(7) 43 . ?
N2D C3D Cl4D 120.5(14) . . ?
C4Z C1Z C4Z 116(4) . 5 ?
C4Z C1Z C4Z 116(4) . 9 ?
C4Z C1Z C4Z 116(4) 5 9 ?
C4Z C1Z C3Z 43(5) . 9 ?
C4Z C1Z C3Z 121(4) 5 9 ?
C4Z C1Z C3Z 121(4) 9 9 ?
C4Z C1Z C3Z 121(4) . 5 ?
C4Z C1Z C3Z 121(4) 5 5 ?
C4Z C1Z C3Z 43(5) 9 5 ?
C3Z C1Z C3Z 95(6) 9 5 ?
C4Z C1Z C3Z 121(4) . . ?
C4Z C1Z C3Z 43(5) 5 . ?
C4Z C1Z C3Z 121(4) 9 . ?
C3Z C1Z C3Z 95(6) 9 . ?
C3Z C1Z C3Z 95(6) 5 . ?
C4Z C1Z C2Z 79(7) . . ?
C4Z C1Z C2Z 79(7) 5 . ?
C4Z C1Z C2Z 79(7) 9 . ?
C3Z C1Z C2Z 121(4) 9 . ?
C3Z C1Z C2Z 121(4) 5 . ?
C3Z C1Z C2Z 121(4) . . ?
C4Z C3Z C1Z 68(9) 5 . ?
C3Z C4Z C1Z 69(8) 9 . ?
C2V C1V C2V 180.00(3) . 25_556 ?

_diffrn_measured_fraction_theta_max 1.000
_diffrn_reflns_theta_full        36.83
_diffrn_measured_fraction_theta_full 1.000
_refine_diff_density_max         0.387
_refine_diff_density_min         -0.280
_refine_diff_density_rms         0.066
